\ENCODING=ISO-8859-1
\Problem name: ilog.cplex

Minimize
 obj: 1000000 z_0,0,0 + 1000000 z_0,0,1 + 1000000 z_0,0,2 + 1000000 z_0,0,3
      + 2000 z_0,0,4 + 2000 z_0,0,5 + 2000 z_0,1,0 + 2000 z_0,1,1
Subject To
 c1:  x0,3,0 - x3,0,0  = 30
 c2:  - x2,1,0 + x1,2,0  = 0
 c3:  x2,1,0 - x1,2,0  = 0
 c4:  - x0,3,0 + x3,0,0  = -30
 c5:  x0,3,0 - 50 z_0,0,0 - 50 z_0,0,4 - 50 z_0,1,1 <= 0
 c6:  x2,1,0 - 50 z_0,0,1 - 50 z_0,0,5 - 50 z_0,1,0 <= 0
 c7:  x1,2,0 - 50 z_0,0,2 - 50 z_0,0,5 - 50 z_0,1,0 <= 0
 c8:  x3,0,0 - 50 z_0,0,3 - 50 z_0,0,4 - 50 z_0,1,1 <= 0
 c9:  q0,0 + z_0,0,4 + z_0,0,5  = 1
 c10: q0,1 + z_0,1,0 + z_0,1,1  = 1
Bounds
 0 <= q0,0 <= 1
 0 <= q0,1 <= 1
End
